5 5
1 17 2 88 0 21 3 51 4 59
3 39 0 55 4 41 2 39 1 13
3 64 4 11 1 19 2 11 0 77
1 46 0 45 3 1 2 40 4 19
0 76 2 72 4 72 1 61 3 12
-1
0 2 4 5
0 1 5
0 1 2 4 5
0 3 5
0 1 2 4 5
-2
110 240 313
40 226
98 101 136 197
140 216
121 220 398 386

327 7
20 6 2 16 14
0 15 12 23 9
1 21 13 8 18
5 10 3 17 24
11 7 22 4 19
